600 14 223 38 230 3 54 1 214 13 118 4 147 15 16 2 104 5 56 49 154 40 106 24 234 18 34 33 195 7 74 10 129 12 159 42 37 41 10 11 185 6 243 45 87 32 57 20 87 9 26 16 201 39 0 23 128 39 194 21 10 46 1 8 28 30 59 26 130 35 160 22 91 34 180 19 16 31 1 17 72